30 60
28
9 24 0 0
14 14 0 46
12 14 0 32
12 13 9 17
9 17 9 0
9 11 12 32
4 24 21 17
8 9 22 0
9 8 0 24
4 17 18 0
12 5 14 55
3 18 25 12
6 9 14 46
3 16 27 36
3 14 23 41
3 12 20 43
4 8 26 52
2 14 28 9
2 13 28 23
12 2 9 30
8 3 12 43
6 3 22 9
3 6 25 30
3 5 22 12
2 5 25 36
1 6 26 41
1 5 26 47
2 2 21 41
